c 1 Weighted
c 2 Algorithms
c 3 Unweighted
c 4 Number
c 5 Wgt
c 6 Undirected
c 7 GraphLibrary
c 8 Directed
c 9 Edges
c 10 Cycle
p cnf 10 18
7 0
2 -10 0
2 -4 0
10 4 -2 0
5 -1 0
5 -3 0
1 3 -5 0
-1 -3 0
7 -5 0
7 -2 0
7 -9 0
5 -7 0
9 -7 0
9 -6 0
9 -8 0
6 8 -9 0
-6 -8 0
-10 8 0
